
Gurobi 11.0.2 (win64) logging started Wed Aug  7 20:40:31 2024

Set parameter LogFile to value "D:\Documenti\Scuola\Laurea magistrale unibs\laurea-unibs-mkfsp\output\2024-08-07T17_25_17.381079\logs\instance08_bucket4.log"
Set parameter TimeLimit to value 100
Set parameter MIPGap to value 0
Gurobi Optimizer version 11.0.2 build v11.0.2rc0 (win64 - Windows 10.0 (19045.2))

CPU model: Intel(R) Core(TM) i5-4670 CPU @ 3.40GHz, instruction set [SSE2|AVX|AVX2]
Thread count: 4 physical cores, 4 logical processors, using up to 4 threads

Optimize a model with 2790 rows, 11748 columns and 328596 nonzeros
Model fingerprint: 0x09860272
Variable types: 0 continuous, 11748 integer (11614 binary)
Coefficient statistics:
  Matrix range     [1e+00, 8e+03]
  Objective range  [6e+02, 8e+03]
  Bounds range     [1e+00, 1e+00]
  RHS range        [1e+00, 7e+05]
Presolve time: 0.63s
Presolved: 2790 rows, 11748 columns, 328596 nonzeros
Variable types: 0 continuous, 11748 integer (11614 binary)
Deterministic concurrent LP optimizer: primal and dual simplex
Showing primal log only...

Concurrent spin time: 0.00s

Solved with dual simplex

Root relaxation: objective 7.449621e+05, 5001 iterations, 2.56 seconds (2.85 work units)
Total elapsed time = 7.26s (DegenMoves)
Total elapsed time = 10.59s (DegenMoves)
Total elapsed time = 17.16s (DegenMoves)

    Nodes    |    Current Node    |     Objective Bounds      |     Work
 Expl Unexpl |  Obj  Depth IntInf | Incumbent    BestBd   Gap | It/Node Time

     0     0 744962.097    0 1165          - 744962.097      -     -   19s
     0     0 744788.120    0 2129          - 744788.120      -     -   30s
     0     0 744736.454    0 1656          - 744736.454      -     -   38s
     0     0 744733.472    0 1355          - 744733.472      -     -  100s

Cutting planes:
  Gomory: 13
  Cover: 963
  Clique: 366
  MIR: 361
  StrongCG: 3
  Zero half: 24

Explored 1 nodes (95235 simplex iterations) in 100.03 seconds (99.51 work units)
Thread count was 4 (of 4 available processors)

Solution count 0

Time limit reached
Best objective -, best bound 7.447334715727e+05, gap -
